param c := 1 10 2 20;
param theta0 := 1;
param theta1 := 4;

param a :  1  2  3  4  5  6  7  8  9  10  :=
           1  20 20 20 20 20 20 20 20 20 20;
		   
param w :=
(1,1,1) 1 1 2 30 3 10 4 8
(1,2,2) 1 1 2 30 3 10 4 8
(1,3,3) 1 1 2 30 3 10 4 8
(1,4,4) 1 1 2 30 3 10 4 8;
